p cnf 133 384
11 34 0
-11 -34 0
12 -11 0
-12 11 0
13 35 0
-13 -35 0
51 -43 0
-51 43 0
-44 -51 0
-43 -14 -50 0
-43 14 0
-44 -14 -50 0
-44 14 0
54 -13 0
-54 13 0
95 -54 0
-95 54 0
50 -54 0
-50 54 0
55 -17 -18 0
-55 17 0
-55 18 0
96 -55 0
-96 55 0
97 -43 -55 45 0
-97 43 0
-97 55 0
-97 -45 0
98 -58 -55 45 43 0
-98 58 0
-98 55 0
-98 -45 0
-98 -43 0
99 -58 -45 -43 -55 0
-99 58 0
-99 45 0
-99 43 0
-99 55 0
58 -44 -55 46 0
-58 44 0
-58 55 0
-58 -46 0
56 -55 -57 0
-56 55 0
-56 57 0
100 -56 50 0
-100 56 0
-100 -50 0
101 -45 -43 -55 0
-101 45 0
-101 43 0
-101 55 0
102 -55 45 43 0
-102 55 0
-102 -45 0
-102 -43 0
60 -43 -55 45 0
-60 43 0
-60 55 0
-60 -45 0
103 -59 -44 -55 46 0
-103 59 0
-103 44 0
-103 55 0
-103 -46 0
104 -60 -46 -55 44 0
-104 60 0
-104 46 0
-104 55 0
-104 -44 0
-56 61 0
105 -55 -61 0
-105 55 0
-105 61 0
62 -21 -22 0
-62 21 0
-62 22 0
106 -62 0
-106 62 0
107 -43 -62 47 0
-107 43 0
-107 62 0
-107 -47 0
108 -65 -62 47 43 0
-108 65 0
-108 62 0
-108 -47 0
-108 -43 0
109 -65 -47 -43 -62 0
-109 65 0
-109 47 0
-109 43 0
-109 62 0
65 -44 -62 48 0
-65 44 0
-65 62 0
-65 -48 0
63 -62 -64 0
-63 62 0
-63 64 0
110 -63 50 0
-110 63 0
-110 -50 0
111 -47 -43 -62 0
-111 47 0
-111 43 0
-111 62 0
112 -62 47 43 0
-112 62 0
-112 -47 0
-112 -43 0
67 -43 -62 47 0
-67 43 0
-67 62 0
-67 -47 0
113 -66 -44 -62 48 0
-113 66 0
-113 44 0
-113 62 0
-113 -48 0
114 -67 -48 -62 44 0
-114 67 0
-114 48 0
-114 62 0
-114 -44 0
-63 68 0
115 -62 -68 0
-115 62 0
-115 68 0
-52 53 0
-14 52 50 0
15 36 0
-15 -36 0
16 37 0
-16 -37 0
71 -45 0
-71 45 0
-46 -71 0
-45 -17 -70 0
-45 17 0
-46 -17 -70 0
-46 17 0
74 -16 0
-74 16 0
116 -74 0
-116 74 0
70 -74 0
-70 74 0
75 -14 -15 0
-75 14 0
-75 15 0
117 -75 0
-117 75 0
118 -45 -75 43 0
-118 45 0
-118 75 0
-118 -43 0
119 -78 -75 43 45 0
-119 78 0
-119 75 0
-119 -43 0
-119 -45 0
120 -78 -43 -45 -75 0
-120 78 0
-120 43 0
-120 45 0
-120 75 0
78 -46 -75 44 0
-78 46 0
-78 75 0
-78 -44 0
76 -75 -77 0
-76 75 0
-76 77 0
72 -76 70 0
-72 76 0
-72 -70 0
121 -43 -45 -75 0
-121 43 0
-121 45 0
-121 75 0
122 -75 43 45 0
-122 75 0
-122 -43 0
-122 -45 0
80 -45 -75 43 0
-80 45 0
-80 75 0
-80 -43 0
123 -79 -46 -75 44 0
-123 79 0
-123 46 0
-123 75 0
-123 -44 0
124 -80 -44 -75 46 0
-124 80 0
-124 44 0
-124 75 0
-124 -46 0
-76 81 0
73 -75 -81 0
-73 75 0
-73 81 0
-72 73 0
-17 72 70 0
18 38 0
-18 -38 0
19 39 0
-19 -39 0
20 40 0
-20 -40 0
84 -47 0
-84 47 0
-48 -84 0
-47 -21 -83 0
-47 21 0
-48 -21 -83 0
-48 21 0
87 -20 0
-87 20 0
125 -87 0
-125 87 0
83 -87 0
-83 87 0
88 -14 -19 0
-88 14 0
-88 19 0
126 -88 0
-126 88 0
127 -47 -88 43 0
-127 47 0
-127 88 0
-127 -43 0
128 -91 -88 43 47 0
-128 91 0
-128 88 0
-128 -43 0
-128 -47 0
129 -91 -43 -47 -88 0
-129 91 0
-129 43 0
-129 47 0
-129 88 0
91 -48 -88 44 0
-91 48 0
-91 88 0
-91 -44 0
89 -88 -90 0
-89 88 0
-89 90 0
85 -89 83 0
-85 89 0
-85 -83 0
130 -43 -47 -88 0
-130 43 0
-130 47 0
-130 88 0
131 -88 43 47 0
-131 88 0
-131 -43 0
-131 -47 0
93 -47 -88 43 0
-93 47 0
-93 88 0
-93 -43 0
132 -92 -48 -88 44 0
-132 92 0
-132 48 0
-132 88 0
-132 -44 0
133 -93 -44 -88 48 0
-133 93 0
-133 44 0
-133 88 0
-133 -48 0
-89 94 0
86 -88 -94 0
-86 88 0
-86 94 0
-85 86 0
-21 85 83 0
22 41 0
-22 -41 0
23 42 0
-23 -42 0
24 -23 0
-24 23 0
25 0
26 0
27 0
28 0
29 0
30 0
31 0
32 0
33 0
34 11 0
-34 -11 0
35 13 0
-35 -13 0
36 15 0
-36 -15 0
37 16 0
-37 -16 0
38 18 0
-38 -18 0
39 19 0
-39 -19 0
40 20 0
-40 -20 0
41 22 0
-41 -22 0
42 23 0
-42 -23 0
-1 0
-1 0
-2 0
-3 0
-4 0
-5 0
-6 0
-7 0
-8 0
-9 0
-10 0
-14 95 96 106 0
14 -95 0
14 -96 0
14 -106 0
-17 116 117 0
17 -116 0
17 -117 0
-21 125 126 0
21 -125 0
21 -126 0
-49 0
-52 100 110 0
52 -100 0
52 -110 0
-53 105 115 0
53 -105 0
53 -115 0
-57 97 98 99 0
57 -97 0
57 -98 0
57 -99 0
-59 101 102 0
59 -101 0
59 -102 0
-61 103 104 0
61 -103 0
61 -104 0
-64 107 108 109 0
64 -107 0
64 -108 0
64 -109 0
-66 111 112 0
66 -111 0
66 -112 0
-68 113 114 0
68 -113 0
68 -114 0
-69 0
-77 118 119 120 0
77 -118 0
77 -119 0
77 -120 0
-79 121 122 0
79 -121 0
79 -122 0
-81 123 124 0
81 -123 0
81 -124 0
-82 0
-90 127 128 129 0
90 -127 0
90 -128 0
90 -129 0
-92 130 131 0
92 -130 0
92 -131 0
-94 132 133 0
94 -132 0
94 -133 0
c p auxilliary 1 2 3 4 5 6 7 8 9 10 34 35 36 37 38 39 40 41 42 43 44 45 46 47 48 49 50 51 52 53 54 55 56 57 58 59 60 61 62 63 64 65 66 67 68 69 70 71 72 73 74 75 76 77 78 79 80 81 82 83 84 85 86 87 88 89 90 91 92 93 94 95 96 97 98 99 100 101 102 103 104 105 106 107 108 109 110 111 112 113 114 115 116 117 118 119 120 121 122 123 124 125 126 127 128 129 130 131 132 133 0
